lab-1/zad-3/zad3.out
Problem:    zad3
Rows:       57
Columns:    44
Non-zeros:  140
Status:     OPTIMAL
Objective:  Profit = 2986.886016 (MAXimum)

   No.   Row name   St   Activity     Lower bound   Upper bound    Marginal
------ ------------ -- ------------- ------------- ------------- -------------
     1 Profit       B        2986.89                             
     2 prod_profit  NS             0            -0             =             1 
     3 mat_cost     NS             0            -0             =            -1 
     4 uti_cost     NS             0            -0             =            -1 
     5 min_storage[1]
                    B           6000          2000               
     6 min_storage[2]
                    B           5000          3000               
     7 min_storage[3]
                    NL          4000          4000                    -2.04564 
     8 max_storage[1]
                    NU          6000                        6000      0.788132 
     9 max_storage[2]
                    NU          5000                        5000       1.28813 
    10 max_storage[3]
                    B           4000                        7000 
    11 sums[1]      NS             0            -0             =      -2.88813 
    12 sums[2]      NS             0            -0             =      -2.88813 
    13 sums[3]      NS             0            -0             =       1.04564 
    14 wastes_sum[1,A]
                    NS             0            -0             =    -0.0279671 
    15 wastes_sum[1,B]
                    NS             0            -0             =          0.05 
    16 wastes_sum[2,A]
                    NS             0            -0             =    -0.0279671 
    17 wastes_sum[2,B]
                    NS             0            -0             =          0.05 
    18 wastes_sum[3,A]
                    NS             0            -0             =    -0.0279671 
    19 wastes_sum[3,B]
                    NS             0            -0             =           0.4 
    20 input_weight_first_class[A]
                    NS             0            -0             =       3.18533 
    21 input_weight_first_class[B]
                    NS             0            -0             =       3.39813 
    22 input_weight_product_C
                    NS             0            -0             =     0.0279671 
    23 input_weight_product_D
                    NS             0            -0             =          -0.4 
    24 second_class_product_equal_input_weight[C]
                    NS             0            -0             =          -0.6 
    25 second_class_product_equal_input_weight[D]
                    NS             0            -0             =          -0.5 
    26 wastes_getted[1,A]
                    NS             0            -0             =      -2.97203 
    27 wastes_getted[1,B]
                    NS             0            -0             =         -2.55 
    28 wastes_getted[2,A]
                    NS             0            -0             =      -2.97203 
    29 wastes_getted[2,B]
                    NS             0            -0             =         -2.55 
    30 wastes_getted[3,A]
                    NS             0            -0             =      -2.97203 
    31 wastes_getted[3,B]
                    NS             0            -0             =          -2.9 
    32 production_first_class_items[A]
                    NS             0            -0             =            -3 
    33 production_first_class_items[B]
                    NS             0            -0             =          -2.5 
    34 resource_not_smaller_than_in_mix[1,A]
                    B        705.053            -0               
    35 resource_not_smaller_than_in_mix[1,B]
                    B        4725.03            -0               
    36 resource_not_smaller_than_in_mix[1,C]
                    NL             0            -0                    -2.86016 
    37 resource_not_smaller_than_in_mix[1,D]
                    B              0            -0               
    38 resource_not_smaller_than_in_mix[2,A]
                    NL             0            -0                   -0.297203 
    39 resource_not_smaller_than_in_mix[2,B]
                    B        4059.93            -0               
    40 resource_not_smaller_than_in_mix[2,C]
                    B              0            -0               
    41 resource_not_smaller_than_in_mix[2,D]
                    NL             0            -0                          -3 
    42 resource_not_smaller_than_in_mix[3,A]
                    B              0            -0               
    43 resource_not_smaller_than_in_mix[3,B]
                    B              0            -0               
    44 resource_not_smaller_than_in_mix[3,C]
                    B              0            -0               
    45 resource_not_smaller_than_in_mix[3,D]
                    B              0            -0               
    46 resource_not_bigger_than_in_mix[1,A]
                    B       -1175.09                          -0 
    47 resource_not_bigger_than_in_mix[1,B]
                    B       -7824.91                          -0 
    48 resource_not_bigger_than_in_mix[1,C]
                    B              0                          -0 
    49 resource_not_bigger_than_in_mix[1,D]
                    B              0                          -0 
    50 resource_not_bigger_than_in_mix[2,A]
                    B       -1410.11                          -0 
    51 resource_not_bigger_than_in_mix[2,B]
                    B       -8490.01                          -0 
    52 resource_not_bigger_than_in_mix[2,C]
                    B              0                          -0 
    53 resource_not_bigger_than_in_mix[2,D]
                    B              0                          -0 
    54 resource_not_bigger_than_in_mix[3,A]
                    NU             0                          -0       3.04216 
    55 resource_not_bigger_than_in_mix[3,B]
                    NU             0                          -0       2.99377 
    56 resource_not_bigger_than_in_mix[3,C]
                    NU             0                          -0       1.04564 
    57 resource_not_bigger_than_in_mix[3,D]
                    NU             0                          -0       1.04564 

   No. Column name  St   Activity     Lower bound   Upper bound    Marginal
------ ------------ -- ------------- ------------- ------------- -------------
     1 mat_prod[1,A]
                    B        1175.09             0               
     2 mat_prod[1,B]
                    B        4725.03             0               
     3 mat_prod[1,C]
                    B        99.8825             0               
     4 mat_prod[1,D]
                    NL             0             0                    -2.88813 
     5 mat_prod[2,A]
                    B        940.071             0               
     6 mat_prod[2,B]
                    B        4059.93             0               
     7 mat_prod[2,C]
                    NL             0             0                    -2.88813 
     8 mat_prod[2,D]
                    NL             0             0                   -0.288132 
     9 mat_prod[3,A]
                    B        235.018             0               
    10 mat_prod[3,B]
                    B        3764.98             0               
    11 mat_prod[3,C]
                    B              0             0               
    12 mat_prod[3,D]
                    B              0             0               
    13 product_created[A]
                    B        1950.65             0               
    14 product_created[B]
                    B        8910.46             0               
    15 product_created[C]
                    B        499.412             0               
    16 product_created[D]
                    B              0             0               
    17 input_weight[A]
                    B        2350.18             0               
    18 input_weight[B]
                    B        12549.9             0               
    19 input_weight[C]
                    B        499.412             0               
    20 input_weight[D]
                    B              0             0               
    21 utilizated_wastes[1,A]
                    NL             0             0                   -0.127967 
    22 utilizated_wastes[1,B]
                    B        945.006             0               
    23 utilizated_wastes[2,A]
                    NL             0             0                   -0.127967 
    24 utilizated_wastes[2,B]
                    B        811.986             0               
    25 utilizated_wastes[3,A]
                    NL             0             0                   -0.227967 
    26 utilizated_wastes[3,B]
                    B        1882.49             0               
    27 reused_wastes[1,A]
                    B        117.509             0               
    28 reused_wastes[1,B]
                    NL             0             0                       -0.35 
    29 reused_wastes[2,A]
                    B        188.014             0               
    30 reused_wastes[2,B]
                    NL             0             0                       -0.35 
    31 reused_wastes[3,A]
                    B        94.0071             0               
    32 reused_wastes[3,B]
                    B              0             0               
    33 wastes[1,A]  B        117.509             0               
    34 wastes[1,B]  B        945.006             0               
    35 wastes[2,A]  B        188.014             0               
    36 wastes[2,B]  B        811.986             0               
    37 wastes[3,A]  B        94.0071             0               
    38 wastes[3,B]  B        1882.49             0               
    39 product_profit
                    B        28427.7             0               
    40 materials_cost
                    B          24600             0               
    41 utilization_cost
                    B        840.846             0               
    42 sum_material[1]
                    B           6000             0               
    43 sum_material[2]
                    B           5000             0               
    44 sum_material[3]
                    B           4000             0               

Karush-Kuhn-Tucker optimality conditions:

KKT.PE: max.abs.err = 9.09e-13 on row 7
        max.rel.err = 3.61e-16 on row 14
        High quality

KKT.PB: max.abs.err = 0.00e+00 on row 0
        max.rel.err = 0.00e+00 on row 0
        High quality

KKT.DE: max.abs.err = 3.55e-15 on column 9
        max.rel.err = 3.75e-16 on column 9
        High quality

KKT.DB: max.abs.err = 0.00e+00 on row 0
        max.rel.err = 0.00e+00 on row 0
        High quality

End of output
